&control
    calculation = 'bands'
    outdir = 'sweeps/TET_6'
    prefix = 'TET_02'
    verbosity = 'high'
    pseudo_dir = './'
/&end
&system
    ibrav = 6
    celldm(1) = 6.283185307179586
celldm(3) = 1.5
    ecutwfc = 80
    nat = 1
    ntyp = 1
    occupations = 'smearing'
    degauss = 0.005
/&end
&electrons
    conv_thr = 1e-08
/&end
&ions
    ion_dynamics = 'bfgs'
/&end
ATOMIC_SPECIES
C  10.811  C_ONCV_PBE_sr.upf
ATOMIC_POSITIONS { crystal }
C  0  0  0
K_POINTS { crystal_b }
5
A 1
M 1
R 1
X 1
Z 1