&control
    calculation = 'bands'
    outdir = 'sweeps/ORCF1_10'
    prefix = 'ORCF1_01'
    verbosity = 'high'
    pseudo_dir = './'
/&end
&system
    ibrav = 10
    celldm(1) = 2.199114857512855
celldm(2) = 1.7857142857142858
celldm(3) = 2.3809523809523814
    ecutwfc = 80
    nat = 1
    ntyp = 1
    occupations = 'smearing'
    degauss = 0.005
/&end
&electrons
    conv_thr = 1e-08
/&end
&ions
    ion_dynamics = 'bfgs'
/&end
ATOMIC_SPECIES
C  10.811  C_ONCV_PBE_sr.upf
ATOMIC_POSITIONS { crystal }
C  0  0  0
K_POINTS { crystal_b }
8
A 1
A1 1
L 1
T 1
X 1
X1 1
Y 1
Z 1