&control
    calculation = 'bands'
    outdir = 'sweeps/BCT1_7'
    prefix = 'BCT1_03'
    verbosity = 'high'
    pseudo_dir = './'
/&end
&system
    ibrav = 7
    celldm(1) = 14.137166941154069
celldm(3) = 0.6666666666666666
    ecutwfc = 80
    nat = 1
    ntyp = 1
    occupations = 'smearing'
    degauss = 0.005
/&end
&electrons
    conv_thr = 1e-08
/&end
&ions
    ion_dynamics = 'bfgs'
/&end
ATOMIC_SPECIES
C  10.811  C_ONCV_PBE_sr.upf
ATOMIC_POSITIONS { crystal }
C  0  0  0
K_POINTS { crystal_b }
6
M 1
N 1
P 1
X 1
Z 1
Z1 1