&control
    calculation = 'bands'
    outdir = 'sweeps/ORCI_11'
    prefix = 'ORCI_02'
    verbosity = 'high'
    pseudo_dir = './'
/&end
&system
    ibrav = 11
    celldm(1) = 6.283185307179586
celldm(2) = 1.3
celldm(3) = 1.7
    ecutwfc = 80
    nat = 1
    ntyp = 1
    occupations = 'smearing'
    degauss = 0.005
/&end
&electrons
    conv_thr = 1e-08
/&end
&ions
    ion_dynamics = 'bfgs'
/&end
ATOMIC_SPECIES
C  10.811  C_ONCV_PBE_sr.upf
ATOMIC_POSITIONS { crystal }
C  0  0  0
K_POINTS { crystal_b }
12
L 1
L1 1
L2 1
R 1
S 1
T 1
W 1
X 1
X1 1
Y 1
Y1 1
Z 1